db/data/795521611163143274494354391768825028.z3.out
-------------------
2500.091904353
